(set-logic QF_S)
(declare-fun var0 () Int)
(declare-fun var1 () Int)
(declare-fun var2 () Int)
(declare-fun var3 () Int)
(declare-fun var4 () String)
(declare-fun var5 () String)
(declare-fun var6 () String)
(declare-fun var7 () String)
(assert (< var0 var1))
(assert (> var2 var3))
(assert (str.contains (str.substr var4 var1 var3) (str.replace var5 var6 var7)))
(assert (> (str.indexof (str.replace var5 var6 var7) (str.substr var4 var3 var0) (str.indexof var6 var4 var2)) (str.to.int "f:")))
(check-sat)